NAME: line_30_3
TYPE: TSP
COMMENT: line_30_3
DIMENSION: 30
EDGE_WEIGHT_TYPE: EUC_2D
NODE_COORD_SECTION
1 0.0 256.0
2 0.0 263.0
3 0.0 176.0
4 0.0 138.0
5 0.0 75.0
6 0.0 26.0
7 0.0 28.0
8 0.0 87.0
9 0.0 241.0
10 0.0 230.0
11 0.0 115.0
12 0.0 226.0
13 0.0 183.0
14 0.0 39.0
15 0.0 9.0
16 0.0 70.0
17 0.0 285.0
18 0.0 184.0
19 0.0 297.0
20 0.0 201.0
21 0.0 271.0
22 0.0 48.0
23 0.0 272.0
24 0.0 179.0
25 0.0 196.0
26 0.0 32.0
27 0.0 115.0
28 0.0 241.0
29 0.0 243.0
30 0.0 148.0
